Nb of jobs, Nb of Machines, Time seed, Machine seed, Upper bound, Lower bound
10,5,-1,-1,-1,-1
Times
88,84,63,69,45
69,70,70,92,7
73,89,65,67,57
31,84,52,90,94
88,21,14,18,49
78,78,61,11,28
25,87,9,97,81
60,78,77,89,3
95,76,91,3,45
95,9,71,73,70
Machines
1,5,3,4,2
3,5,2,4,1
2,1,5,4,3
3,4,5,2,1
4,2,5,1,3
5,3,1,2,4
1,4,5,2,3
1,4,3,5,2
1,2,3,5,4
1,4,2,5,3
